Instance: /home/alberto/work/doct-ufrgs-thesis/mankowska2014/instances-HHCRSP/InstanzVNS_HCSRP_300_9.txt
Time limit: 7200
Working directory: ./run.VA8ysT3g


Generating model and initial solution...
#######################################
### Exact MIP solver for the HHCRSP ###
#######################################
-- Instance file: /home/alberto/work/doct-ufrgs-thesis/mankowska2014/instances-HHCRSP/InstanzVNS_HCSRP_300_9.txt
-- Max threads: 1
-- Time limit: 200 seconds
-- Use initial solution: No
Trivial flow violations prevented generating 907205 variables.
Fractional cycle elimination constraints enabled.
Model exported.
SKIP_OPT flag set. Exiting.


Invoking CPLEX...

Welcome to IBM(R) ILOG(R) CPLEX(R) Interactive Optimizer 20.1.0.0
  with Simplex, Mixed Integer & Barrier Optimizers
5725-A06 5725-A29 5724-Y48 5724-Y49 5724-Y54 5724-Y55 5655-Y21
Copyright IBM Corp. 1988, 2020.  All Rights Reserved.

Type 'help' for a list of available commands.
Type 'help' followed by a command name for more
information on commands.

CPLEX> New value for seed to initialize the random number generator: 1
CPLEX> New value for reduced memory emphasis: yes
CPLEX> New value for default parallel thread count: 1
CPLEX> New value for time limit in seconds: 7200
CPLEX> Problem './run.VA8ysT3g/model.lp' read.
Read time = 126.33 sec. (3223.84 ticks)
CPLEX> Version identifier: 20.1.0.0 | 2020-11-10 | 9bedb6d68
CPXPARAM_Threads                                 1
CPXPARAM_Emphasis_Memory                         1
CPXPARAM_RandomSeed                              1
CPXPARAM_TimeLimit                               7200
Presolve has eliminated 36649 rows and 8023 columns...
Presolve has eliminated 36649 rows and 8023 columns...
Tried aggregator 1 time.
Presolve has eliminated 36649 rows and 8023 columns...
MIP Presolve eliminated 36649 rows and 8023 columns.
MIP Presolve modified 7980 coefficients.
Reduced MIP has 2212097 rows, 989738 columns, and 225612454 nonzeros.
Reduced MIP has 983118 binaries, 0 generals, 0 SOSs, and 0 indicators.
Presolve time = 296.64 sec. (113153.85 ticks)
Warning: MIP starts not constructed because of out-of-memory status.

Root node processing (before b&c):
  Real time             =  384.52 sec. (132803.27 ticks)
Sequential b&c:
  Real time             =    0.00 sec. (0.00 ticks)
                          ------------
Total (root+branch&cut) =  384.52 sec. (132803.27 ticks)
CPLEX Error  1001: Out of memory.

Error termination, CPLEX Error  1001.
Solution time =  384.68 sec.
Deterministic time = 132806.13 ticks  (345.23 ticks/sec)

CPLEX> CPLEX Error  1217: No solution exists.
No file written.
CPLEX> 